(set-option :produce-models true)
(set-logic QF_UF)
(declare-fun p10() Bool)
(declare-fun p20() Bool)
(declare-fun p3() Bool)
(declare-fun p9() Bool)
(declare-fun p11() Bool)
(declare-fun p19() Bool)
(declare-fun p8() Bool)
(declare-fun p24() Bool)
(declare-fun p17() Bool)
(declare-fun p13() Bool)
(declare-fun p28() Bool)
(declare-fun p26() Bool)
(declare-fun p16() Bool)
(declare-fun p1() Bool)
(declare-fun p6() Bool)
(declare-fun p25() Bool)
(declare-fun p0() Bool)
(declare-fun p15() Bool)
(declare-fun p23() Bool)
(declare-fun p27() Bool)
(declare-fun p21() Bool)
(declare-fun p2() Bool)
(declare-fun p29() Bool)
(declare-fun p22() Bool)
(declare-fun p5() Bool)
(declare-fun p12() Bool)
(declare-fun p7() Bool)
(declare-fun p18() Bool)
(declare-fun p14() Bool)
(declare-fun p4() Bool)
(assert
(and (or p10 p20 (not p3)) (or p9 p11 (not p19)) (or (not p8) p24 p20) (or p17 (not p13) (not p28)) (or p26 (not p16) (not p16)) (or (not p1) (not p1) (not p20)) (or p24 p6 p19) (or p25 (not p19) (not p0)) (or (not p28) (not p9) (not p15)) (or p23 p27 p21) (or p8 p9 (not p20)) (or (not p21) (not p15) (not p9)) (or (not p2) (not p11) (not p23)) (or p29 (not p22) p19) (or (not p8) p9 p20) (or (not p6) (not p5) (not p6)) (or (not p15) (not p2) p6) (or (not p29) p12 p22) (or p23 (not p15) p11) (or p5 (not p8) p7) (or (not p26) (not p2) p12) (or (not p23) (not p8) p5) (or (not p18) p15 p1) (or p5 p18 p12) (or p3 (not p22) (not p19)) (or (not p24) p23 p21) (or p21 (not p3) p19) (or (not p9) (not p11) (not p28)) (or (not p17) (not p2) (not p12)) (or (not p3) (not p27) (not p1)) (or (not p15) (not p2) p6) (or (not p22) p15 p3) (or (not p16) p21 (not p13)) (or p16 p16 p18) (or (not p16) p14 p0) (or p16 p0 (not p16)) (or p23 p28 (not p23)) (or p0 (not p9) (not p3)) (or p3 p19 p3) (or (not p19) (not p19) (not p10)) (or p1 p20 (not p22)) (or (not p27) (not p1) (not p8)) (or p23 p27 p22) (or (not p1) p9 p11) (or (not p29) p14 (not p13)) (or p23 p21 p20) (or p15 (not p9) p13) (or (not p13) (not p8) (not p6)) (or p28 p11 p14) (or (not p19) p10 (not p19)) (or p0 p23 (not p9)) (or p12 p28 p13) (or p28 (not p18) (not p20)) (or p15 (not p24) (not p3)) (or (not p19) (not p8) (not p11)) (or p18 (not p23) p12) (or (not p6) (not p14) (not p1)) (or (not p17) p5 p18) (or p27 p0 p11) (or (not p18) (not p23) p15) (or p16 p17 p6) (or p12 p0 (not p8)) (or p10 p20 (not p29)) (or p23 (not p28) p14) (or (not p22) (not p18) p9) (or p27 (not p2) (not p0)) (or p4 p22 p13) (or p16 (not p3) p29) (or p4 p26 p28) (or (not p25) p27 p10) (or (not p24) p27 (not p28)) (or (not p17) p13 (not p1)) (or (not p3) p6 p7) (or p2 p2 (not p7)) (or p29 (not p20) (not p19)) (or (not p18) p29 (not p17)) (or (not p10) p10 (not p1)) (or (not p11) p3 (not p5)) (or (not p5) p1 (not p24)) (or (not p18) (not p17) p4) (or p22 p25 (not p18)) (or p16 p19 p22) (or (not p15) p2 p25) (or (not p10) (not p8) p3) (or p15 (not p11) p2) (or p7 (not p14) p16) (or (not p26) (not p19) (not p16)) (or p3 p23 p28) (or (not p15) p24 (not p2)) (or (not p25) p16 (not p9)) (or (not p6) (not p26) (not p17)) (or (not p23) (not p21) p16) (or (not p13) (not p9) p21) (or p24 p16 p10) (or p29 (not p19) p8) (or (not p15) (not p2) p20) (or p0 p26 (not p5)) (or (not p17) (not p10) (not p13)) (or (not p19) p4 (not p22)) (or (not p5) p16 p4) (or (not p1) (not p9) (not p2)) (or p0 (not p5) (not p18)) (or (not p16) (not p20) p3) (or (not p2) p5 (not p10)) (or p7 (not p8) p0) (or (not p25) (not p11) (not p24)) (or p26 p5 p20) (or (not p12) (not p12) p2) (or p18 (not p28) p1) (or p17 p6 (not p8)) (or p4 p18 p22) (or p26 p16 (not p1)) (or (not p7) (not p23) p23) (or (not p23) p4 (not p19)) (or (not p28) (not p28) p22) (or (not p7) (not p5) p14) (or p14 p25 (not p14)) (or (not p5) (not p19) p12) (or (not p13) (not p3) p24) (or p17 p6 (not p24)) (or (not p29) (not p21) p5) (or (not p16) (not p23) p6) (or p23 (not p16) (not p2)) (or p20 (not p25) (not p28)) (or p7 p23 p17) (or p5 (not p24) (not p0)) (or p5 p9 p20) (or p14 (not p13) (not p12)))
)
(check-sat)
(get-model)
